46
25
9
57
66
4
6
33
82
42
2
13
78
17
36
96
92
19
44
41
45
18
24
77
16
50
55
22
23
88
54
72
37
65
47
79
81
56
100
26
69
62
5
67
40
39
70
53
73
85
93
11
3
28
91
97
99
8
29
76
59
32
98
71
27
34
7
84
58
52
43
89
14
64
63
31
48
51
15
83
87
60
74
94
61
35
12
95
1
90
21
10
68
86
49
30
75
80
20
38
46
